NAME: test1924
TYPE: TSP
DIMENSION: 11
EDGE_WEIGHT_TYPE: EUC_2D
NODE_COORD_SECTION
1 38.64694393783895 93.64418304977224
2 36.43842804790509 13.870772097995898
3 45.686393562721314 99.10779718798217
4 80.89681680444552 43.61540546682363
5 6.380632865745717 73.7414475869097
6 14.814954212052733 48.1044451905556
7 30.84128194107293 67.26020248652428
8 36.030164244481114 15.145866091719329
9 88.00758175585956 44.137118741904935
10 85.37720946223217 6.256517111665794
11 7.144209856892791 57.41032277979213
EOF
